&CONTROL
  calculation = 'vc-relax'
  etot_conv_thr =   2.0000000000d-04
  forc_conv_thr =   1.0000000000d-04
  outdir = 'output'
  prefix = 'aiida'
  pseudo_dir = 'pseudo'
  tprnfor = .true.
  tstress = .true.
  verbosity = 'high'
/
&SYSTEM
  degauss =   1.4699723600d-02
  ecutrho =   980
  ecutwfc =   140
  ibrav = 0
  nat = 20
  nspin = 2
  ntyp = 2
  occupations = 'smearing'
  smearing = 'mv'
  starting_magnetization(1) =   3.1250000000d-01
  starting_magnetization(2) =   1.0000000000d-01
/
&ELECTRONS
  conv_thr =   4.0000000000d-09
  electron_maxstep = 80
  mixing_beta =   4.0000000000d-01
/

&IONS
 ion_dynamics='bfgs'
/
&CELL
 cell_dynamics='bfgs'
 press=300.d0
 press_conv_thr=0.5d0
/

ATOMIC_SPECIES
Fe     55.847 Fe.pbe-spn-kjpaw_psl.0.2.1.UPF
N      14.0067 N.pbe-n-radius_5.UPF
ATOMIC_POSITIONS crystal
Fe           0.7500000000       0.2908300000       0.2500000000 
Fe           0.7500000000       0.7091700000       0.7500000000 
Fe           0.2500000000       0.2908300000       0.2500000000 
Fe           0.2500000000       0.7091700000       0.7500000000 
Fe           0.2500000000       0.7908300000       0.2500000000 
Fe           0.2500000000       0.2091700000       0.7500000000 
Fe           0.7500000000       0.7908300000       0.2500000000 
Fe           0.7500000000       0.2091700000       0.7500000000 
Fe           0.0000000000       0.5000000000       0.0000000000 
Fe           0.0000000000       0.5000000000       0.5000000000 
Fe           0.5000000000       0.0000000000       0.0000000000 
Fe           0.5000000000       0.0000000000       0.5000000000 
Fe           0.0000000000       0.0000000000       0.0000000000 
Fe           0.0000000000       0.0000000000       0.5000000000 
Fe           0.5000000000       0.5000000000       0.0000000000 
Fe           0.5000000000       0.5000000000       0.5000000000 
N           -0.0000000000       0.5408300000       0.2500000000 
N            0.0000000000       0.4591700000       0.7500000000 
N            0.5000000000       0.0408300000       0.2500000000 
N            0.5000000000       0.9591700000       0.7500000000 
K_POINTS automatic
7 7 5 0 0 0
CELL_PARAMETERS angstrom
      5.2408800000       0.0000000000       0.0000000000
      0.0000000000       5.1674100000       0.0000000000
      0.0000000000       0.0000000000       7.4497600000
