&CONTROL
  calculation = 'vc-relax'
  etot_conv_thr =   1.0000000000d-03
  forc_conv_thr =   1.0000000000d-03
  outdir = './out/'
  pseudo_dir = 'pseudo/'
  tprnfor = .true.
  tstress = .true.
  verbosity = 'high'
/
&SYSTEM
  degauss =   1.4699723600d-02
  ecutrho =   980
  ecutwfc =   140
  ibrav = 0
  nat = 20
  nspin = 2
  ntyp = 2
  occupations = 'smearing'
  smearing = 'cold'
  starting_magnetization(1) =   3.1250000000d-01
  starting_magnetization(2) =   1.0000000000d-01
/
&ELECTRONS
  conv_thr =   5.0000000000d-06
  electron_maxstep = 200
  mixing_beta =   4.0000000000d-01
/

&IONS
 ion_dynamics='bfgs'
/
&CELL
 cell_dynamics='bfgs'
 press=60.d0
 press_conv_thr=0.5d0
/

ATOMIC_SPECIES
Fe     55.847 Fe.pbe-spn-kjpaw_psl.0.2.1.UPF
N      14.0067 N.pbe-n-radius_5.UPF
ATOMIC_POSITIONS crystal
Fe       0.749407552   0.249599563   0.249995242
Fe       0.749407552   0.750400437   0.750004758
Fe       0.250592448   0.249599563   0.249995242
Fe       0.250592448   0.750400437   0.750004758
Fe       0.249405761   0.749602899   0.249995680
Fe       0.249405761   0.250397101   0.750004320
Fe       0.750594239   0.749602899   0.249995680
Fe       0.750594239   0.250397101   0.750004320
Fe       0.000000000   0.500000000   0.000000000
Fe       0.000000000   0.500000000   0.500000000
Fe       0.500000000   0.000000000   0.000000000
Fe       0.500000000  -0.000000000   0.500000000
Fe       0.000000000   0.000000000   0.000000000
Fe       0.000000000  -0.000000000   0.500000000
Fe       0.500000000   0.500000000   0.000000000
Fe       0.500000000   0.500000000   0.500000000
N       -0.000000000   0.498759546   0.249999846
N       -0.000000000   0.501240454   0.750000154
N        0.500000000  -0.001240619   0.249999835
N        0.500000000   1.001240619   0.750000165
K_POINTS automatic
6 6 5 0 0 0
CELL_PARAMETERS angstrom
      5.3528726320       0.0000000000       0.0000000000
      0.0000000000       5.3306403780      -0.0000000000
      0.0000000000      -0.0000000000       7.6515957380
