#************************************************************************************
#*                   Generated by cif2cell 2.0.0 2020-10-26 16:23                   *
#*  T. Bjorkman, Comp. Phys. Commun. 182, 1183-1186 (2011). Please cite generously. *
#*                                                                                  *
#*                              Data obtained from COD                              *
#*                                    Fe4N   ()                                     *
#*             Failed to get author information, No journal information             *
#************************************************************************************

&CONTROL
  calculation = 'scf'
  outdir = 'output'
  prefix = 'config'
  pseudo_dir = 'pseudo'
  verbosity = 'low'
  tprnfor = .true.
  tstress = .true.
/
&SYSTEM
  ibrav = 0
  A =    3.67367
  nat = 5
  ntyp = 2
  ecutwfc = 140
  ecutrho = 840
  input_dft = 'pbe'
  occupations = 'smearing'
  smearing = 'mv'
  degauss = 0.005d0
  nspin = 2
  starting_magnetization(1) = 0.5
  starting_magnetization(2) = -0.01
/
&ELECTRONS
  conv_thr = 1d-08
  mixing_beta = 0.7d0
/
CELL_PARAMETERS {alat}
  1.000000000000000   0.000000000000000   0.000000000000000 
  0.000000000000000   1.000000000000000   0.000000000000000 
  0.000000000000000   0.000000000000000   1.000000000000000 
ATOMIC_SPECIES
  Fe   55.84500  Fe_PSEUDO
   N   14.00650   N_PSEUDO
ATOMIC_POSITIONS {crystal}
Fe   0.000000000000000   0.500000000000000   0.500000000000000 
Fe   0.500000000000000   0.500000000000000   0.000000000000000 
Fe   0.500000000000000   0.000000000000000   0.500000000000000 
Fe   0.000000000000000   0.000000000000000   0.000000000000000 
 N   0.500000000000000   0.500000000000000   0.500000000000000 
K_POINTS {automatic}
  9 9 9 0 0 0

