#************************************************************************************
#*                   Generated by cif2cell 2.0.0 2020-11-09 13:43                   *
#*  T. Bjorkman, Comp. Phys. Commun. 182, 1183-1186 (2011). Please cite generously. *
#*                                                                                  *
#*                              Data obtained from COD                              *
#*                                    Fe4N   ()                                     *
#*             Failed to get author information, No journal information             *
#************************************************************************************

&CONTROL
  calculation = 'vc-relax'
  etot_conv_thr =   1.0000000000d-04
  forc_conv_thr =   1.0000000000d-04
  outdir = 'output'
  prefix = 'fe4n'
  pseudo_dir = 'pseudo'
  verbosity = 'high'
  tprnfor = .true.
  tstress = .true.
/
&SYSTEM
  ibrav = 0
  A =    6.55331
  nat = 10
  ntyp = 2
  ecutwfc = 140
  ecutrho = 980
  input_dft = 'pbe'
  occupations = 'smearing'
  smearing = 'mv'
  degauss = 1.4699723600d-02
  starting_magnetization(1) =   3.1250000000d-01
  starting_magnetization(2) =   1.0000000000d-01 
  starting_magnetization(3) =   1.0000000000d-01 
  starting_magnetization(4) =   1.0000000000d-01 
  starting_magnetization(5) =   1.0000000000d-01 
  starting_magnetization(6) =   1.0000000000d-01 
  starting_magnetization(7) =   1.0000000000d-01 
  starting_magnetization(8) =   1.0000000000d-01 
/
&ELECTRONS
  conv_thr =   2.0000000000d-09
  electron_maxstep = 80
  mixing_beta =   4.0000000000d-01
/
&IONS
  ion_dynamics='bfgs',
/
&CELL
  cell_dynamics='bfgs',
  press=300.d0,
  press_conv_thr=0.0005d0,
/
CELL_PARAMETERS {alat}
  1.000000000000000   0.000000000000000   0.000000000000000 
  0.000000000000000   0.579278257857480   0.000000000000000 
  0.000000000000000   0.000000000000000   0.608295655172730 
ATOMIC_SPECIES
  Fe   55.84500  Fe.pbe-spn-kjpaw_psl.0.2.1.UPF
   N   14.00650   N.pbe-n-radius_5.UPF
ATOMIC_POSITIONS {crystal}
Fe   0.250000000000000   0.000000000000000   0.403760000000000 
Fe   0.750000000000000   0.000000000000000   0.596240000000000 
Fe   0.250000000000000   0.500000000000000   0.903760000000000 
Fe   0.750000000000000   0.500000000000000   0.096240000000000 
Fe   0.000000000000000   0.500000000000000   0.500000000000000 
Fe   0.500000000000000   0.500000000000000   0.500000000000000 
Fe   0.000000000000000   0.000000000000000   0.000000000000000 
Fe   0.500000000000000   0.000000000000000   0.000000000000000 
 N   0.250000000000000   0.500000000000000   0.403760000000000 
 N   0.750000000000000   0.500000000000000   0.596240000000000 
K_POINTS {automatic}
  5 9 8 0 0 0
