#************************************************************************************
#*                   Generated by cif2cell 2.0.0 2020-11-10 13:59                   *
#*  T. Bjorkman, Comp. Phys. Commun. 182, 1183-1186 (2011). Please cite generously. *
#*                                                                                  *
#*                              Data obtained from COD                              *
#*                                    None   ()                                     *
#*             Failed to get author information, No journal information             *
#************************************************************************************

&SYSTEM
  ibrav = 0
  A =    3.81353
  nat = 10
  ntyp = 2
/
CELL_PARAMETERS {alat}
  1.000000000000000   0.000000000000000   0.000000000000000 
  0.000000000000000   1.722886669306391   0.000000000000000 
  0.139315069982967   0.000000000000000   1.040468965555062 
ATOMIC_SPECIES
   N   14.00650   N_PSEUDO
  Fe   55.84500  Fe_PSEUDO
ATOMIC_POSITIONS {crystal}
Fe   0.096240000000000   0.250000000000000   0.403760000000000 
Fe   0.903760000000000   0.750000000000000   0.596240000000000 
Fe   0.596240000000000   0.250000000000000   0.903760000000000 
Fe   0.403760000000000   0.750000000000000   0.096240000000000 
Fe   0.500000000000000   0.000000000000000   0.500000000000000 
Fe   0.500000000000000   0.500000000000000   0.500000000000000 
Fe   0.000000000000000   0.000000000000000   0.000000000000000 
Fe   0.000000000000000   0.500000000000000   0.000000000000000 
 N   0.596240000000000   0.250000000000000   0.403760000000000 
 N   0.403760000000000   0.750000000000000   0.596240000000000 
